
  32    4
  10   10   10   10

   0   0   0   0   0   3 2 3 6 
  10   1   1   0   1   3 7 5 4 
   3   5   3   0   3   3 7 5 4 
   6   5   0   1   4   5 12 11 10 9 8 
   8   0   4   5   5   5 12 11 10 9 8 
   8   4   5   7   0   4 11 10 9 8 
   6   2   3   0   6   3 10 9 8 
   4   4   0   7   3   8 20 19 18 17 16 15 14 13 
   1   0   4   6   2   8 20 19 18 17 16 15 14 13 
   2   4   0   5   4   7 19 18 17 16 15 14 13 
   3   4   3   3   0   7 20 19 17 16 15 14 13 
   6   0   2   3   4   7 20 19 17 16 15 14 13 
   5   0   2   5   7   3 23 22 21 
   1   4   5   0   7   3 23 22 21 
  10   3   6   0   7   3 23 22 21 
  10   0   4   3   5   3 23 22 21 
   5   2   1   0   3   3 23 22 21 
   6   2   6   6   0   3 23 22 21 
   3   9   0   3   2   2 23 21 
   3   6   0   3   4   2 22 21 
  10   0   4   2   4   8 31 30 29 28 27 26 25 24 
   9   0   5   6   6   7 31 29 28 27 26 25 24 
   9   7   8   4   0   7 30 29 28 27 26 25 24 
   2   2   8   0   2   1 32
   9   4   2   3   0   1 32
   9   2   3   0   2   1 32
   8   3   4   2   0   1 32
   9   5   8   0   3   1 32
   2   4   5   0   4   1 32
   1   5   3   2   0   1 32
   3   5   1   4   0   1 32
   0   0   0   0   0   0 
